1583
40 7 22 61 94 8 92 69 33 28 6 68 59 51 49 76 9 70 23 56 30 87 35 47 44 18 97 74 66 52 25 20 72 32 14 46 75 3 71 57 63 5 39 15 17 10 98 85 95 80 86 99 50 53 27 58 29 81 2 21 36 26 82 79 67 55 34 91 54 4 37 42 1 12 38 31 45 96 84 43 16 77 65 24 90 88 19 13 64 41 89 93 60 78 62 73 11 48 83 
